48
27
0 27 28 30 33 34 35 39 40 41 43 44 46 47
1 27 31 33 34 35 37 38 39 41 42 43 46 47
2 27 28 33 34 36 39 40 42 43 44 45
3 27 28 32 34 35 36 37 39 40 42 43 44 45 46 47
4 29 30 33 35 40 41 43 44 47
5 28 30 33 34 35 39 42 45 46 47
6 27 33 34 37 39 40 42 43 44 45 46 47
7 34 35 38 42 44 46
8 27 29 31 34 35 36 37 39 40 41 42 43 44 45 46
9 27 28 35 36 37 39 40 41 42 44 45 47
10 27 28 33 34 35 40 41 42 44
11 27 29 30 31 33 35 37 40 41 42 46 47
12 28 31 33 34 35 37 39 40 42 46 47
13 29 30 34 37 39 41 45 47
14 28 33 34 37 39 42 45
15 31 34 35 36 38 40 41 46
16 27 29 37 39 44
17 27 31 32 36 38 40 43 44 47
18 28 33 34 36 41 43 46
19 29 30 31 32 37 40 44 46
20 27 47
21 30 44 45
22 28 29 37 41 45 46
23 27 28 31 34 40
24 30
25 29 33
26 32
